337415	2
385293	359
471062	2
28951	17
480029	3
410402	11
483895	37
11076	272
421711	1
234074	12
385132	117
23162	1
442245	157
455042	1
85384	26
424591	122
252556	1
409236	16
409245	5
380313	117
413083	10
399769	1
420004	3
467618	1
426678	1
485302	2
162740	165
476859	37
401848	3
434630	3
65738	202
180169	1
427218	8
391376	1
413913	11
369381	2
472815	2
412650	2
357110	191
479474	1
423409	4
403705	76
